param xcoord := 0 0  1 2  2 3  3 4;
param ycoord := 0 0  1 1  2 2  3 3;
param demand := 0 5  1 5  2 5  3 0;
param service_time := 0 1  1 1  2 1  3 0;
param ready_time := 0 2  1 2  2 2  3 0;
param due_date := 0 5  1 5  2 5  3 0;
